outputs/case_143.model.txt
license_issue_date = 0
contact_other_approved_method_provided = False
broker_company_shareholding_ratio = 0
share_transfer_date = 0
internal_operation_rules_established = True
duty_of_loyalty = True
permit_obtained = True
contact_phone_provided = False
application_date = 1080623
capital_adjustment_date = 1080601
days_since_share_transfer = 0
insurance_purchased = True
written_analysis_report_provided = True
fee_disclosure_provided = False
compliance_with_65_plus_protection = True
disclosure_made = True
internal_operation_rules_executed = True
share_transfer_ratio = 0
business_type = 1
is_inheritance = False
documents_retained = True
duty_of_care = True
paid_in_capital = 5000000
contact_info_provided_to_insurer = True
license_held = True
contact_email_provided = True
guarantee_deposit_minimum = 10
fee_charged = False
insurance_company_shareholding_ratio = 0
policy_issued_electronically = True
guarantee_deposit = 10
compliance_business_management = True
electronic_policy_contact_info_provided = True
document_retention = True
compliance_with_management_rules = True
min_capital_requirement = 5000000
capital_compliance = True
internal_operation_compliance = True
duty_of_care_and_loyalty = True
license_and_permit_valid = True
capital_requirement_compliance = True
compliance_financial_management = True
pre_contract_disclosure = True
capital_adjustment_deadline_met = True
penalty = False
capital_adjustment_after_share_transfer_met = True
shareholding_disclosure = True